p cnf 184 288               
-2 -1 -19 0
19 -25 0
-1 20 0
-2 20 0
1 2 -20 0
-20 -3 -21 0
21 -25 0
-3 22 0
-20 22 0
3 20 -22 0
-22 -4 -23 0
23 -25 0
4 22 -24 0
24 -25 0
25 -47 0
-6 -5 -26 0
26 -32 0
-5 27 0
-6 27 0
5 6 -27 0
-27 -7 -28 0
28 -32 0
-7 29 0
-27 29 0
7 27 -29 0
-29 -8 -30 0
30 -32 0
8 29 -31 0
31 -32 0
32 -47 0
-10 -9 -33 0
33 -39 0
-9 34 0
-10 34 0
9 10 -34 0
-34 -11 -35 0
35 -39 0
-11 36 0
-34 36 0
11 34 -36 0
-36 -12 -37 0
37 -39 0
12 36 -38 0
38 -39 0
39 -47 0
-14 -13 -40 0
40 -46 0
-13 41 0
-14 41 0
13 14 -41 0
-41 -15 -42 0
42 -46 0
-15 43 0
-41 43 0
15 41 -43 0
-43 -16 -44 0
44 -46 0
16 43 -45 0
45 -46 0
46 -47 0
47 -102 0
-18 -17 -48 0
48 -50 0
17 18 -49 0
49 -50 0
50 -102 0
13 -71 0
18 -71 0
-13 -18 71 0
9 -88 0
17 -88 0
71 88 -92 0
92 96 0
-5 -17 63 0
-63 79 0
-71 79 0
-79 96 0
14 -72 0
18 -72 0
-14 -18 72 0
10 -89 0
17 -89 0
72 89 -93 0
93 97 0
-6 -17 64 0
-64 80 0
-72 80 0
-80 97 0
15 -73 0
18 -73 0
-15 -18 73 0
11 -90 0
17 -90 0
73 90 -94 0
94 98 0
-7 -17 65 0
-65 81 0
-73 81 0
-81 98 0
16 -74 0
18 -74 0
-16 -18 74 0
12 -91 0
17 -91 0
74 91 -95 0
95 99 0
-8 -17 66 0
-66 82 0
-74 82 0
-82 99 0
-96 -97 -98 -99 100 0
-100 -101 0
1 -51 0
17 -51 0
-1 -17 51 0
5 -55 0
18 -55 0
51 55 -59 0
59 83 0
-51 75 0
-9 -18 67 0
-67 75 0
-75 83 0
2 -52 0
17 -52 0
-2 -17 52 0
6 -56 0
18 -56 0
52 56 -60 0
60 84 0
-52 76 0
-10 -18 68 0
-68 76 0
-76 84 0
3 -53 0
17 -53 0
-3 -17 53 0
7 -57 0
18 -57 0
53 57 -61 0
61 85 0
-53 77 0
-11 -18 69 0
-69 77 0
-77 85 0
4 -54 0
17 -54 0
-4 -17 54 0
8 -58 0
18 -58 0
54 58 -62 0
62 86 0
-54 78 0
-12 -18 70 0
-70 78 0
-78 86 0
-83 -84 -85 -86 87 0
-87 -101 0
101 -102 0
-1 2 -103 0
103 -117 0
-1 -2 104 0
1 2 104 0
-2 2 104 0
-5 6 -105 0
-104 105 -106 0
106 -117 0
-5 -6 107 0
5 6 107 0
-6 6 107 0
-104 -107 108 0
-9 10 -109 0
-108 109 -110 0
110 -117 0
-9 -10 111 0
9 10 111 0
-10 10 111 0
-108 -111 112 0
-13 14 -113 0
-112 113 -114 0
114 -117 0
117 -183 0
-2 3 -118 0
118 -132 0
-2 -3 119 0
2 3 119 0
-3 3 119 0
-6 7 -120 0
-119 120 -121 0
121 -132 0
-6 -7 122 0
6 7 122 0
-7 7 122 0
-119 -122 123 0
-10 11 -124 0
-123 124 -125 0
125 -132 0
-10 -11 126 0
10 11 126 0
-11 11 126 0
-123 -126 127 0
-14 15 -128 0
-127 128 -129 0
129 -132 0
132 -183 0
-3 4 -133 0
133 -147 0
-3 -4 134 0
3 4 134 0
-4 4 134 0
-7 8 -135 0
-134 135 -136 0
136 -147 0
-7 -8 137 0
7 8 137 0
-8 8 137 0
-134 -137 138 0
-11 12 -139 0
-138 139 -140 0
140 -147 0
-11 -12 141 0
11 12 141 0
-12 12 141 0
-138 -141 142 0
-15 16 -143 0
-142 143 -144 0
144 -147 0
147 -183 0
-17 18 -148 0
148 -182 0
-17 -18 149 0
17 18 149 0
-18 18 149 0
-1 13 -150 0
-149 150 -151 0
151 -182 0
-1 -13 152 0
1 13 152 0
-13 13 152 0
-149 -152 153 0
-2 14 -154 0
-153 154 -155 0
155 -182 0
-2 -14 156 0
2 14 156 0
-14 14 156 0
-153 -156 157 0
-3 15 -158 0
-157 158 -159 0
159 -182 0
-3 -15 160 0
3 15 160 0
-15 15 160 0
-157 -160 161 0
-4 16 -162 0
-161 162 -163 0
163 -182 0
-4 -16 164 0
4 16 164 0
-16 16 164 0
-161 -164 165 0
-5 9 -166 0
-165 166 -167 0
167 -182 0
-5 -9 168 0
5 9 168 0
-9 9 168 0
-165 -168 169 0
-6 10 -170 0
-169 170 -171 0
171 -182 0
-6 -10 172 0
6 10 172 0
-10 10 172 0
-169 -172 173 0
-7 11 -174 0
-173 174 -175 0
175 -182 0
-7 -11 176 0
7 11 176 0
-11 11 176 0
-173 -176 177 0
-8 12 -178 0
-177 178 -179 0
179 -182 0
182 -183 0
102 0
183 0
